SCIP version 5.0.0 [precision: 8 byte] [memory: block] [mode: optimized] [LP solver: NONE] [GitHash: 3bbd232]
Copyright (C) 2002-2017 Konrad-Zuse-Zentrum fuer Informationstechnik Berlin (ZIB)

External codes: 
  Readline EditLine w  GNU library for command line editing (gnu.org/s/readline)
  CppAD 20160000.1     Algorithmic Differentiation of C++ algorithms developed by B. Bell (www.coin-or.org/CppAD)
  ZLIB 1.2.5           General purpose compression library by J. Gailly and M. Adler (zlib.net)
  GMP 6.1.2            GNU Multiple Precision Arithmetic Library developed by T. Granlund (gmplib.org)

user parameter file <scip.set> not found - using default parameters

read problem <../../Split_data/output/statG/6/3_sample_statG.logreg>
============

File name	:	../../Split_data/output/statG/6/3_sample_statG.logreg
Problem name 	:	3_sample_statG
Number of data	:	800
Number of var	:	61
The given data has linear dependence
13 sets of column vector are linearly dependent:

[dim=1] time: 0.034946
[dim=2] time: 0.075057
[dim=3] time: 0.132339
[dim=4] time: 0.178429
[dim=5] time: 0.218208
[dim=6] time: 0.258731
[dim=7] time: 0.307379
[dim=8] time: 0.348077
[dim=9] time: 0.388358
[dim=10] time: 0.4313
[dim=11] time: 0.473212
[dim=12] time: 0.513697
[dim=13] time: 0.554143
[dim=14] time: 0.593685
[dim=15] time: 0.633558
[dim=16] time: 0.675744
[dim=17] time: 0.725742
[dim=18] time: 0.799523
[dim=19] time: 0.831261
[dim=20] time: 0.895514
[dim=21] time: 0.942103
[dim=22] time: 1.02473
[dim=23] time: 1.06276
[dim=24] Time of forward = 1.12902sec.
AIC: 770.421
k: 23

[dim=48] time: 0.174613
[dim=47] time: 0.266802
[dim=46] time: 0.417087
[dim=45] time: 0.545968
[dim=44] time: 0.651187
[dim=43] time: 0.789028
[dim=42] time: 0.893013
[dim=41] time: 1.00233
[dim=40] time: 1.09076
[dim=39] time: 1.19735
[dim=38] time: 1.27756
[dim=37] time: 1.35816
[dim=36] time: 1.43513
[dim=35] time: 1.50125
[dim=34] time: 1.5675
[dim=33] time: 1.63556
[dim=32] time: 1.71391
[dim=31] time: 1.78269
[dim=30] time: 1.83785
[dim=29] time: 1.89443
[dim=28] time: 1.93328
[dim=27] time: 1.9847
[dim=26] time: 2.03217
[dim=25] Time of backward = 2.07283sec.
AIC: 771.113
k: 26
